w = 39;

n = 29;

r2 = array1d(1..2, [3, 3]);

r3 = array1d(1..2, [3, 4]);

r4 = array1d(1..2, [3, 5]);

r5 = array1d(1..2, [3, 6]);

r6 = array1d(1..2, [3, 7]);

r7 = array1d(1..2, [3, 8]);

r8 = array1d(1..2, [3, 9]);

r9 = array1d(1..2, [3, 10]);

r10 = array1d(1..2, [3, 11]);

r11 = array1d(1..2, [3, 15]);

r12 = array1d(1..2, [4, 3]);

r13 = array1d(1..2, [4, 4]);

r14 = array1d(1..2, [4, 5]);

r15 = array1d(1..2, [4, 6]);

r16 = array1d(1..2, [4, 8]);

r17 = array1d(1..2, [4, 9]);

r18 = array1d(1..2, [4, 12]);

r19 = array1d(1..2, [4, 15]);

r20 = array1d(1..2, [4, 16]);

r21 = array1d(1..2, [5, 3]);

r22 = array1d(1..2, [5, 4]);

r23 = array1d(1..2, [5, 5]);

r24 = array1d(1..2, [5, 6]);

r25 = array1d(1..2, [5, 8]);

r26 = array1d(1..2, [5, 10]);

r27 = array1d(1..2, [5, 11]);

r28 = array1d(1..2, [5, 13]);

r29 = array1d(1..2, [5, 18]);

r30 = array1d(1..2, [15, 39]);

